p ocr 189 24 189
1 195
2 197
3 195
4 195
5 197
6 197
7 197
8 195
9 199
10 195
11 195
12 197
13 199
14 197
15 199
16 195
17 195
18 197
19 195
20 197
21 193
22 193
23 198
24 193
25 198
26 193
27 193
28 193
29 198
30 196
31 193
32 193
33 193
34 196
35 196
36 198
37 196
38 198
39 193
40 198
41 193
42 198
43 196
44 193
45 202
46 212
47 212
48 202
49 202
50 202
51 212
52 209
53 202
54 212
55 209
56 202
57 212
58 212
59 209
60 212
61 212
62 209
63 212
64 202
65 212
66 209
67 212
68 201
69 201
70 201
71 208
72 207
73 201
74 207
75 207
76 201
77 201
78 201
79 201
80 201
81 208
82 207
83 208
84 208
85 201
86 201
87 208
88 208
89 207
90 208
91 208
92 208
93 208
94 207
95 208
96 206
97 213
98 213
99 213
100 213
101 213
102 213
103 206
104 206
105 206
106 204
107 204
108 206
109 204
110 206
111 213
112 213
113 206
114 206
115 210
116 203
117 200
118 210
119 210
120 210
121 200
122 200
123 203
124 203
125 200
126 203
127 200
128 203
129 210
130 200
131 203
132 200
133 210
134 203
135 203
136 203
137 203
138 210
139 210
140 200
141 210
142 203
143 203
144 210
145 210
146 191
147 194
148 194
149 191
150 194
151 205
152 194
153 205
154 205
155 194
156 205
157 194
158 205
159 205
160 205
161 194
162 205
163 205
164 194
165 205
166 194
167 205
168 194
169 191
170 194
171 194
172 191
173 192
174 211
175 192
176 192
177 192
178 190
179 192
180 190
181 192
182 192
183 192
184 192
185 192
186 211
187 190
188 192
189 211